
Gurobi 11.0.1 (linux64, gurobi_cl) logging started Sat May 18 22:31:00 2024

Set parameter LogFile to value "gurobi.log"
Using license file /home/keshi/gurobi.lic

Gurobi 11.0.1 (linux64, gurobi_cl) logging started Sat May 18 22:32:05 2024

Set parameter LogFile to value "gurobi.log"
Using license file /home/keshi/gurobi.lic
